(set-logic QF_S)
(declare-fun var0 () String)
(assert (RegexIn var0 (RegexConcat (RegexPlus (RegexPlus (RegexUnion (RegexPlus (RegexUnion (RegexStar (RegexStar (Str2Reg "0"))) (RegexStar (RegexUnion (Str2Reg "1") (Str2Reg "22"))))) (RegexPlus (RegexPlus (RegexUnion (RegexUnion (Str2Reg "33") (Str2Reg "4")) (RegexUnion (Str2Reg "555") (Str2Reg "666")))))))) (RegexPlus (RegexStar (RegexStar (RegexUnion (RegexUnion (RegexStar (RegexStar (Str2Reg "77"))) (RegexStar (RegexUnion (Str2Reg "88") (Str2Reg "99")))) (RegexUnion (RegexUnion (RegexPlus (Str2Reg "aaa")) (RegexPlus (Str2Reg "b"))) (RegexUnion (RegexStar (Str2Reg "cc")) (RegexStar (Str2Reg "d")))))))))))
(assert (<= 15 (Length var0)))
(check-sat)